(set-logic QF_LRA)
(declare-fun X0 () Real )
(declare-fun Y0 () Real )
(declare-fun X1 () Real )
(declare-fun Y1 () Real )
(declare-fun X2 () Real )
(declare-fun Y2 () Real )
(declare-fun X3 () Real )
(declare-fun Y3 () Real )
(declare-fun X4 () Real )
(declare-fun Y4 () Real )
(declare-fun X5 () Real )
(declare-fun Y5 () Real )
(declare-fun X6 () Real )
(declare-fun Y6 () Real )
(declare-fun X7 () Real )
(declare-fun Y7 () Real )
(declare-fun X8 () Real )
(declare-fun Y8 () Real )
(declare-fun Z () Real )
(assert ( and  
( or ( <= ( + X0 80 ) X1 )  ( <= ( + X1 45 ) X0 )  ( <= ( + Y0 10 ) Y1 )  ( <= ( + Y1 48 ) Y0 )  )
( or ( <= ( + X0 80 ) X2 )  ( <= ( + X2 92 ) X0 )  ( <= ( + Y0 10 ) Y2 )  ( <= ( + Y2 27 ) Y0 )  )
( or ( <= ( + X0 80 ) X3 )  ( <= ( + X3 46 ) X0 )  ( <= ( + Y0 10 ) Y3 )  ( <= ( + Y3 96 ) Y0 )  )
( or ( <= ( + X0 80 ) X4 )  ( <= ( + X4 32 ) X0 )  ( <= ( + Y0 10 ) Y4 )  ( <= ( + Y4 90 ) Y0 )  )
( or ( <= ( + X0 80 ) X5 )  ( <= ( + X5 17 ) X0 )  ( <= ( + Y0 10 ) Y5 )  ( <= ( + Y5 73 ) Y0 )  )
( or ( <= ( + X0 80 ) X6 )  ( <= ( + X6 11 ) X0 )  ( <= ( + Y0 10 ) Y6 )  ( <= ( + Y6 53 ) Y0 )  )
( or ( <= ( + X0 80 ) X7 )  ( <= ( + X7 82 ) X0 )  ( <= ( + Y0 10 ) Y7 )  ( <= ( + Y7 62 ) Y0 )  )
( or ( <= ( + X0 80 ) X8 )  ( <= ( + X8 56 ) X0 )  ( <= ( + Y0 10 ) Y8 )  ( <= ( + Y8 33 ) Y0 )  )
( or ( <= ( + X1 45 ) X2 )  ( <= ( + X2 92 ) X1 )  ( <= ( + Y1 48 ) Y2 )  ( <= ( + Y2 27 ) Y1 )  )
( or ( <= ( + X1 45 ) X3 )  ( <= ( + X3 46 ) X1 )  ( <= ( + Y1 48 ) Y3 )  ( <= ( + Y3 96 ) Y1 )  )
( or ( <= ( + X1 45 ) X4 )  ( <= ( + X4 32 ) X1 )  ( <= ( + Y1 48 ) Y4 )  ( <= ( + Y4 90 ) Y1 )  )
( or ( <= ( + X1 45 ) X5 )  ( <= ( + X5 17 ) X1 )  ( <= ( + Y1 48 ) Y5 )  ( <= ( + Y5 73 ) Y1 )  )
( or ( <= ( + X1 45 ) X6 )  ( <= ( + X6 11 ) X1 )  ( <= ( + Y1 48 ) Y6 )  ( <= ( + Y6 53 ) Y1 )  )
( or ( <= ( + X1 45 ) X7 )  ( <= ( + X7 82 ) X1 )  ( <= ( + Y1 48 ) Y7 )  ( <= ( + Y7 62 ) Y1 )  )
( or ( <= ( + X1 45 ) X8 )  ( <= ( + X8 56 ) X1 )  ( <= ( + Y1 48 ) Y8 )  ( <= ( + Y8 33 ) Y1 )  )
( or ( <= ( + X2 92 ) X3 )  ( <= ( + X3 46 ) X2 )  ( <= ( + Y2 27 ) Y3 )  ( <= ( + Y3 96 ) Y2 )  )
( or ( <= ( + X2 92 ) X4 )  ( <= ( + X4 32 ) X2 )  ( <= ( + Y2 27 ) Y4 )  ( <= ( + Y4 90 ) Y2 )  )
( or ( <= ( + X2 92 ) X5 )  ( <= ( + X5 17 ) X2 )  ( <= ( + Y2 27 ) Y5 )  ( <= ( + Y5 73 ) Y2 )  )
( or ( <= ( + X2 92 ) X6 )  ( <= ( + X6 11 ) X2 )  ( <= ( + Y2 27 ) Y6 )  ( <= ( + Y6 53 ) Y2 )  )
( or ( <= ( + X2 92 ) X7 )  ( <= ( + X7 82 ) X2 )  ( <= ( + Y2 27 ) Y7 )  ( <= ( + Y7 62 ) Y2 )  )
( or ( <= ( + X2 92 ) X8 )  ( <= ( + X8 56 ) X2 )  ( <= ( + Y2 27 ) Y8 )  ( <= ( + Y8 33 ) Y2 )  )
( or ( <= ( + X3 46 ) X4 )  ( <= ( + X4 32 ) X3 )  ( <= ( + Y3 96 ) Y4 )  ( <= ( + Y4 90 ) Y3 )  )
( or ( <= ( + X3 46 ) X5 )  ( <= ( + X5 17 ) X3 )  ( <= ( + Y3 96 ) Y5 )  ( <= ( + Y5 73 ) Y3 )  )
( or ( <= ( + X3 46 ) X6 )  ( <= ( + X6 11 ) X3 )  ( <= ( + Y3 96 ) Y6 )  ( <= ( + Y6 53 ) Y3 )  )
( or ( <= ( + X3 46 ) X7 )  ( <= ( + X7 82 ) X3 )  ( <= ( + Y3 96 ) Y7 )  ( <= ( + Y7 62 ) Y3 )  )
( or ( <= ( + X3 46 ) X8 )  ( <= ( + X8 56 ) X3 )  ( <= ( + Y3 96 ) Y8 )  ( <= ( + Y8 33 ) Y3 )  )
( or ( <= ( + X4 32 ) X5 )  ( <= ( + X5 17 ) X4 )  ( <= ( + Y4 90 ) Y5 )  ( <= ( + Y5 73 ) Y4 )  )
( or ( <= ( + X4 32 ) X6 )  ( <= ( + X6 11 ) X4 )  ( <= ( + Y4 90 ) Y6 )  ( <= ( + Y6 53 ) Y4 )  )
( or ( <= ( + X4 32 ) X7 )  ( <= ( + X7 82 ) X4 )  ( <= ( + Y4 90 ) Y7 )  ( <= ( + Y7 62 ) Y4 )  )
( or ( <= ( + X4 32 ) X8 )  ( <= ( + X8 56 ) X4 )  ( <= ( + Y4 90 ) Y8 )  ( <= ( + Y8 33 ) Y4 )  )
( or ( <= ( + X5 17 ) X6 )  ( <= ( + X6 11 ) X5 )  ( <= ( + Y5 73 ) Y6 )  ( <= ( + Y6 53 ) Y5 )  )
( or ( <= ( + X5 17 ) X7 )  ( <= ( + X7 82 ) X5 )  ( <= ( + Y5 73 ) Y7 )  ( <= ( + Y7 62 ) Y5 )  )
( or ( <= ( + X5 17 ) X8 )  ( <= ( + X8 56 ) X5 )  ( <= ( + Y5 73 ) Y8 )  ( <= ( + Y8 33 ) Y5 )  )
( or ( <= ( + X6 11 ) X7 )  ( <= ( + X7 82 ) X6 )  ( <= ( + Y6 53 ) Y7 )  ( <= ( + Y7 62 ) Y6 )  )
( or ( <= ( + X6 11 ) X8 )  ( <= ( + X8 56 ) X6 )  ( <= ( + Y6 53 ) Y8 )  ( <= ( + Y8 33 ) Y6 )  )
( or ( <= ( + X7 82 ) X8 )  ( <= ( + X8 56 ) X7 )  ( <= ( + Y7 62 ) Y8 )  ( <= ( + Y8 33 ) Y7 )  )
( >= X0 0)
( <= ( + X0 80) Z)
( >= Y0 0)
( <= ( + Y0 10 ) 100)
( >= X1 0)
( <= ( + X1 45) Z)
( >= Y1 0)
( <= ( + Y1 48 ) 100)
( >= X2 0)
( <= ( + X2 92) Z)
( >= Y2 0)
( <= ( + Y2 27 ) 100)
( >= X3 0)
( <= ( + X3 46) Z)
( >= Y3 0)
( <= ( + Y3 96 ) 100)
( >= X4 0)
( <= ( + X4 32) Z)
( >= Y4 0)
( <= ( + Y4 90 ) 100)
( >= X5 0)
( <= ( + X5 17) Z)
( >= Y5 0)
( <= ( + Y5 73 ) 100)
( >= X6 0)
( <= ( + X6 11) Z)
( >= Y6 0)
( <= ( + Y6 53 ) 100)
( >= X7 0)
( <= ( + X7 82) Z)
( >= Y7 0)
( <= ( + Y7 62 ) 100)
( >= X8 0)
( <= ( + X8 56) Z)
( >= Y8 0)
( <= ( + Y8 33 ) 100)
) )
(minimize Z)
(check-sat)
